benchmarks_vrp/CMT5/no_cluster/CMT5_8.vrp
NAME: CMT5_8
TYPE: CVRP
COMMENT: 1291.29 - Cluster Nr.8
DIMENSION: 12
CAPACITY: 200
EDGE_WEIGHT_TYPE: EUC_2D
NODE_COORD_TYPE: TWOD_COORDS
NODE_COORD_SECTION: 
3 8 52
10 8 56
7 2 48
5 15 47
4 13 52
8 35 35
9 9 56
2 22 53
1 16 57
6 20 50
11 15 60
12 21 48
DEPOT_SECTION: 
8
-1
DEMAND_SECTION: 
9 13
10 27
4 36
3 10
2 28
12 17
8 0
11 17
1 16
7 1
5 16
6 5
EOF
