benchmarks_vrp/CMT5/no_cluster/CMT5_8.tour
NAME: CMT5_8 solution
TYPE: TOUR
TOUR_SECTION:
8 5 4 3 7 10 9 11 1 2 6 12 -1
-1
EOF